Minimize
    r
Subject to
demand volume: 
x111 + x121 + x131 = 2
x112 + x122 + x132 = 3
x113 + x123 + x133 = 4
x114 + x124 + x134 = 5
x115 + x125 + x135 = 6
x116 + x126 + x136 = 7
x117 + x127 + x137 = 8
x211 + x221 + x231 = 3
x212 + x222 + x232 = 4
x213 + x223 + x233 = 5
x214 + x224 + x234 = 6
x215 + x225 + x235 = 7
x216 + x226 + x236 = 8
x217 + x227 + x237 = 9
x311 + x321 + x331 = 4
x312 + x322 + x332 = 5
x313 + x323 + x333 = 6
x314 + x324 + x334 = 7
x315 + x325 + x335 = 8
x316 + x326 + x336 = 9
x317 + x327 + x337 = 10
x411 + x421 + x431 = 5
x412 + x422 + x432 = 6
x413 + x423 + x433 = 7
x414 + x424 + x434 = 8
x415 + x425 + x435 = 9
x416 + x426 + x436 = 10
x417 + x427 + x437 = 11
x511 + x521 + x531 = 6
x512 + x522 + x532 = 7
x513 + x523 + x533 = 8
x514 + x524 + x534 = 9
x515 + x525 + x535 = 10
x516 + x526 + x536 = 11
x517 + x527 + x537 = 12
x611 + x621 + x631 = 7
x612 + x622 + x632 = 8
x613 + x623 + x633 = 9
x614 + x624 + x634 = 10
x615 + x625 + x635 = 11
x616 + x626 + x636 = 12
x617 + x627 + x637 = 13
x711 + x721 + x731 = 8
x712 + x722 + x732 = 9
x713 + x723 + x733 = 10
x714 + x724 + x734 = 11
x715 + x725 + x735 = 12
x716 + x726 + x736 = 13
x717 + x727 + x737 = 14
srouce to tranfer node capp1: 
x111 + x112 + x113 + x114 + x115 + x116 + x117 - c11 <= 0
x121 + x122 + x123 + x124 + x125 + x126 + x127 - c12 <= 0
x131 + x132 + x133 + x134 + x135 + x136 + x137 - c13 <= 0
x211 + x212 + x213 + x214 + x215 + x216 + x217 - c21 <= 0
x221 + x222 + x223 + x224 + x225 + x226 + x227 - c22 <= 0
x231 + x232 + x233 + x234 + x235 + x236 + x237 - c23 <= 0
x311 + x312 + x313 + x314 + x315 + x316 + x317 - c31 <= 0
x321 + x322 + x323 + x324 + x325 + x326 + x327 - c32 <= 0
x331 + x332 + x333 + x334 + x335 + x336 + x337 - c33 <= 0
x411 + x412 + x413 + x414 + x415 + x416 + x417 - c41 <= 0
x421 + x422 + x423 + x424 + x425 + x426 + x427 - c42 <= 0
x431 + x432 + x433 + x434 + x435 + x436 + x437 - c43 <= 0
x511 + x512 + x513 + x514 + x515 + x516 + x517 - c51 <= 0
x521 + x522 + x523 + x524 + x525 + x526 + x527 - c52 <= 0
x531 + x532 + x533 + x534 + x535 + x536 + x537 - c53 <= 0
x611 + x612 + x613 + x614 + x615 + x616 + x617 - c61 <= 0
x621 + x622 + x623 + x624 + x625 + x626 + x627 - c62 <= 0
x631 + x632 + x633 + x634 + x635 + x636 + x637 - c63 <= 0
x711 + x712 + x713 + x714 + x715 + x716 + x717 - c71 <= 0
x721 + x722 + x723 + x724 + x725 + x726 + x727 - c72 <= 0
x731 + x732 + x733 + x734 + x735 + x736 + x737 - c73 <= 0
transit to destination node capp2: 
x111 + x211 + x311 + x411 + x511 + x611 + x711 - d11 <= 0
x112 + x212 + x312 + x412 + x512 + x612 + x712 - d12 <= 0
x113 + x213 + x313 + x413 + x513 + x613 + x713 - d13 <= 0
x114 + x214 + x314 + x414 + x514 + x614 + x714 - d14 <= 0
x115 + x215 + x315 + x415 + x515 + x615 + x715 - d15 <= 0
x116 + x216 + x316 + x416 + x516 + x616 + x716 - d16 <= 0
x117 + x217 + x317 + x417 + x517 + x617 + x717 - d17 <= 0
x121 + x221 + x321 + x421 + x521 + x621 + x721 - d21 <= 0
x122 + x222 + x322 + x422 + x522 + x622 + x722 - d22 <= 0
x123 + x223 + x323 + x423 + x523 + x623 + x723 - d23 <= 0
x124 + x224 + x324 + x424 + x524 + x624 + x724 - d24 <= 0
x125 + x225 + x325 + x425 + x525 + x625 + x725 - d25 <= 0
x126 + x226 + x326 + x426 + x526 + x626 + x726 - d26 <= 0
x127 + x227 + x327 + x427 + x527 + x627 + x727 - d27 <= 0
x131 + x231 + x331 + x431 + x531 + x631 + x731 - d31 <= 0
x132 + x232 + x332 + x432 + x532 + x632 + x732 - d32 <= 0
x133 + x233 + x333 + x433 + x533 + x633 + x733 - d33 <= 0
x134 + x234 + x334 + x434 + x534 + x634 + x734 - d34 <= 0
x135 + x235 + x335 + x435 + x535 + x635 + x735 - d35 <= 0
x136 + x236 + x336 + x436 + x536 + x636 + x736 - d36 <= 0
x137 + x237 + x337 + x437 + x537 + x637 + x737 - d37 <= 0
transit nodes: 
x111 + x211 + x311 + x411 + x511 + x611 + x711 + x112 + x212 + x312 + x412 + x512 + x612 + x712 + x113 + x213 + x313 + x413 + x513 + x613 + x713 + x114 + x214 + x314 + x414 + x514 + x614 + x714 + x115 + x215 + x315 + x415 + x515 + x615 + x715 + x116 + x216 + x316 + x416 + x516 + x616 + x716 + x117 + x217 + x317 + x417 + x517 + x617 + x717 - r <= 0
x121 + x221 + x321 + x421 + x521 + x621 + x721 + x122 + x222 + x322 + x422 + x522 + x622 + x722 + x123 + x223 + x323 + x423 + x523 + x623 + x723 + x124 + x224 + x324 + x424 + x524 + x624 + x724 + x125 + x225 + x325 + x425 + x525 + x625 + x725 + x126 + x226 + x326 + x426 + x526 + x626 + x726 + x127 + x227 + x327 + x427 + x527 + x627 + x727 - r <= 0
x131 + x231 + x331 + x431 + x531 + x631 + x731 + x132 + x232 + x332 + x432 + x532 + x632 + x732 + x133 + x233 + x333 + x433 + x533 + x633 + x733 + x134 + x234 + x334 + x434 + x534 + x634 + x734 + x135 + x235 + x335 + x435 + x535 + x635 + x735 + x136 + x236 + x336 + x436 + x536 + x636 + x736 + x137 + x237 + x337 + x437 + x537 + x637 + x737 - r <= 0
binary variables: 
u111 + u121 + u131 = 3
u112 + u122 + u132 = 3
u113 + u123 + u133 = 3
u114 + u124 + u134 = 3
u115 + u125 + u135 = 3
u116 + u126 + u136 = 3
u117 + u127 + u137 = 3
u211 + u221 + u231 = 3
u212 + u222 + u232 = 3
u213 + u223 + u233 = 3
u214 + u224 + u234 = 3
u215 + u225 + u235 = 3
u216 + u226 + u236 = 3
u217 + u227 + u237 = 3
u311 + u321 + u331 = 3
u312 + u322 + u332 = 3
u313 + u323 + u333 = 3
u314 + u324 + u334 = 3
u315 + u325 + u335 = 3
u316 + u326 + u336 = 3
u317 + u327 + u337 = 3
u411 + u421 + u431 = 3
u412 + u422 + u432 = 3
u413 + u423 + u433 = 3
u414 + u424 + u434 = 3
u415 + u425 + u435 = 3
u416 + u426 + u436 = 3
u417 + u427 + u437 = 3
u511 + u521 + u531 = 3
u512 + u522 + u532 = 3
u513 + u523 + u533 = 3
u514 + u524 + u534 = 3
u515 + u525 + u535 = 3
u516 + u526 + u536 = 3
u517 + u527 + u537 = 3
u611 + u621 + u631 = 3
u612 + u622 + u632 = 3
u613 + u623 + u633 = 3
u614 + u624 + u634 = 3
u615 + u625 + u635 = 3
u616 + u626 + u636 = 3
u617 + u627 + u637 = 3
u711 + u721 + u731 = 3
u712 + u722 + u732 = 3
u713 + u723 + u733 = 3
u714 + u724 + u734 = 3
u715 + u725 + u735 = 3
u716 + u726 + u736 = 3
u717 + u727 + u737 = 3
demand flow: 
3 x111 - 2 u111 = 0
3 x121 - 2 u121 = 0
3 x131 - 2 u131 = 0
3 x112 - 3 u112 = 0
3 x122 - 3 u122 = 0
3 x132 - 3 u132 = 0
3 x113 - 4 u113 = 0
3 x123 - 4 u123 = 0
3 x133 - 4 u133 = 0
3 x114 - 5 u114 = 0
3 x124 - 5 u124 = 0
3 x134 - 5 u134 = 0
3 x115 - 6 u115 = 0
3 x125 - 6 u125 = 0
3 x135 - 6 u135 = 0
3 x116 - 7 u116 = 0
3 x126 - 7 u126 = 0
3 x136 - 7 u136 = 0
3 x117 - 8 u117 = 0
3 x127 - 8 u127 = 0
3 x137 - 8 u137 = 0
3 x211 - 3 u211 = 0
3 x221 - 3 u221 = 0
3 x231 - 3 u231 = 0
3 x212 - 4 u212 = 0
3 x222 - 4 u222 = 0
3 x232 - 4 u232 = 0
3 x213 - 5 u213 = 0
3 x223 - 5 u223 = 0
3 x233 - 5 u233 = 0
3 x214 - 6 u214 = 0
3 x224 - 6 u224 = 0
3 x234 - 6 u234 = 0
3 x215 - 7 u215 = 0
3 x225 - 7 u225 = 0
3 x235 - 7 u235 = 0
3 x216 - 8 u216 = 0
3 x226 - 8 u226 = 0
3 x236 - 8 u236 = 0
3 x217 - 9 u217 = 0
3 x227 - 9 u227 = 0
3 x237 - 9 u237 = 0
3 x311 - 4 u311 = 0
3 x321 - 4 u321 = 0
3 x331 - 4 u331 = 0
3 x312 - 5 u312 = 0
3 x322 - 5 u322 = 0
3 x332 - 5 u332 = 0
3 x313 - 6 u313 = 0
3 x323 - 6 u323 = 0
3 x333 - 6 u333 = 0
3 x314 - 7 u314 = 0
3 x324 - 7 u324 = 0
3 x334 - 7 u334 = 0
3 x315 - 8 u315 = 0
3 x325 - 8 u325 = 0
3 x335 - 8 u335 = 0
3 x316 - 9 u316 = 0
3 x326 - 9 u326 = 0
3 x336 - 9 u336 = 0
3 x317 - 10 u317 = 0
3 x327 - 10 u327 = 0
3 x337 - 10 u337 = 0
3 x411 - 5 u411 = 0
3 x421 - 5 u421 = 0
3 x431 - 5 u431 = 0
3 x412 - 6 u412 = 0
3 x422 - 6 u422 = 0
3 x432 - 6 u432 = 0
3 x413 - 7 u413 = 0
3 x423 - 7 u423 = 0
3 x433 - 7 u433 = 0
3 x414 - 8 u414 = 0
3 x424 - 8 u424 = 0
3 x434 - 8 u434 = 0
3 x415 - 9 u415 = 0
3 x425 - 9 u425 = 0
3 x435 - 9 u435 = 0
3 x416 - 10 u416 = 0
3 x426 - 10 u426 = 0
3 x436 - 10 u436 = 0
3 x417 - 11 u417 = 0
3 x427 - 11 u427 = 0
3 x437 - 11 u437 = 0
3 x511 - 6 u511 = 0
3 x521 - 6 u521 = 0
3 x531 - 6 u531 = 0
3 x512 - 7 u512 = 0
3 x522 - 7 u522 = 0
3 x532 - 7 u532 = 0
3 x513 - 8 u513 = 0
3 x523 - 8 u523 = 0
3 x533 - 8 u533 = 0
3 x514 - 9 u514 = 0
3 x524 - 9 u524 = 0
3 x534 - 9 u534 = 0
3 x515 - 10 u515 = 0
3 x525 - 10 u525 = 0
3 x535 - 10 u535 = 0
3 x516 - 11 u516 = 0
3 x526 - 11 u526 = 0
3 x536 - 11 u536 = 0
3 x517 - 12 u517 = 0
3 x527 - 12 u527 = 0
3 x537 - 12 u537 = 0
3 x611 - 7 u611 = 0
3 x621 - 7 u621 = 0
3 x631 - 7 u631 = 0
3 x612 - 8 u612 = 0
3 x622 - 8 u622 = 0
3 x632 - 8 u632 = 0
3 x613 - 9 u613 = 0
3 x623 - 9 u623 = 0
3 x633 - 9 u633 = 0
3 x614 - 10 u614 = 0
3 x624 - 10 u624 = 0
3 x634 - 10 u634 = 0
3 x615 - 11 u615 = 0
3 x625 - 11 u625 = 0
3 x635 - 11 u635 = 0
3 x616 - 12 u616 = 0
3 x626 - 12 u626 = 0
3 x636 - 12 u636 = 0
3 x617 - 13 u617 = 0
3 x627 - 13 u627 = 0
3 x637 - 13 u637 = 0
3 x711 - 8 u711 = 0
3 x721 - 8 u721 = 0
3 x731 - 8 u731 = 0
3 x712 - 9 u712 = 0
3 x722 - 9 u722 = 0
3 x732 - 9 u732 = 0
3 x713 - 10 u713 = 0
3 x723 - 10 u723 = 0
3 x733 - 10 u733 = 0
3 x714 - 11 u714 = 0
3 x724 - 11 u724 = 0
3 x734 - 11 u734 = 0
3 x715 - 12 u715 = 0
3 x725 - 12 u725 = 0
3 x735 - 12 u735 = 0
3 x716 - 13 u716 = 0
3 x726 - 13 u726 = 0
3 x736 - 13 u736 = 0
3 x717 - 14 u717 = 0
3 x727 - 14 u727 = 0
3 x737 - 14 u737 = 0
Bounds
0 <= x111
0 <= x121
0 <= x131
0 <= x112
0 <= x122
0 <= x132
0 <= x113
0 <= x123
0 <= x133
0 <= x114
0 <= x124
0 <= x134
0 <= x115
0 <= x125
0 <= x135
0 <= x116
0 <= x126
0 <= x136
0 <= x117
0 <= x127
0 <= x137
0 <= x211
0 <= x221
0 <= x231
0 <= x212
0 <= x222
0 <= x232
0 <= x213
0 <= x223
0 <= x233
0 <= x214
0 <= x224
0 <= x234
0 <= x215
0 <= x225
0 <= x235
0 <= x216
0 <= x226
0 <= x236
0 <= x217
0 <= x227
0 <= x237
0 <= x311
0 <= x321
0 <= x331
0 <= x312
0 <= x322
0 <= x332
0 <= x313
0 <= x323
0 <= x333
0 <= x314
0 <= x324
0 <= x334
0 <= x315
0 <= x325
0 <= x335
0 <= x316
0 <= x326
0 <= x336
0 <= x317
0 <= x327
0 <= x337
0 <= x411
0 <= x421
0 <= x431
0 <= x412
0 <= x422
0 <= x432
0 <= x413
0 <= x423
0 <= x433
0 <= x414
0 <= x424
0 <= x434
0 <= x415
0 <= x425
0 <= x435
0 <= x416
0 <= x426
0 <= x436
0 <= x417
0 <= x427
0 <= x437
0 <= x511
0 <= x521
0 <= x531
0 <= x512
0 <= x522
0 <= x532
0 <= x513
0 <= x523
0 <= x533
0 <= x514
0 <= x524
0 <= x534
0 <= x515
0 <= x525
0 <= x535
0 <= x516
0 <= x526
0 <= x536
0 <= x517
0 <= x527
0 <= x537
0 <= x611
0 <= x621
0 <= x631
0 <= x612
0 <= x622
0 <= x632
0 <= x613
0 <= x623
0 <= x633
0 <= x614
0 <= x624
0 <= x634
0 <= x615
0 <= x625
0 <= x635
0 <= x616
0 <= x626
0 <= x636
0 <= x617
0 <= x627
0 <= x637
0 <= x711
0 <= x721
0 <= x731
0 <= x712
0 <= x722
0 <= x732
0 <= x713
0 <= x723
0 <= x733
0 <= x714
0 <= x724
0 <= x734
0 <= x715
0 <= x725
0 <= x735
0 <= x716
0 <= x726
0 <= x736
0 <= x717
0 <= x727
0 <= x737
0 <= r
Binaries
u111
u112
u113
u114
u115
u116
u117
u121
u122
u123
u124
u125
u126
u127
u131
u132
u133
u134
u135
u136
u137
u211
u212
u213
u214
u215
u216
u217
u221
u222
u223
u224
u225
u226
u227
u231
u232
u233
u234
u235
u236
u237
u311
u312
u313
u314
u315
u316
u317
u321
u322
u323
u324
u325
u326
u327
u331
u332
u333
u334
u335
u336
u337
u411
u412
u413
u414
u415
u416
u417
u421
u422
u423
u424
u425
u426
u427
u431
u432
u433
u434
u435
u436
u437
u511
u512
u513
u514
u515
u516
u517
u521
u522
u523
u524
u525
u526
u527
u531
u532
u533
u534
u535
u536
u537
u611
u612
u613
u614
u615
u616
u617
u621
u622
u623
u624
u625
u626
u627
u631
u632
u633
u634
u635
u636
u637
u711
u712
u713
u714
u715
u716
u717
u721
u722
u723
u724
u725
u726
u727
u731
u732
u733
u734
u735
u736
u737

End